10	5	2	0
0	1	7	6	10	1	2	4	3	8	[0 0 0]	[0 0 0]	[0 0 0]	[0 0 0]	[0 0 0]	[0 0 0]	[0 0 0]
1	3	3	7	8	11	[0 1 0 1 10 10 0 -2 4]	[2 1 0 -3 6 -1 0 6 3]	[1 5 3]
2	3	3	11	6	5	[7 6 7]	[10 13 -4 18 4 0 -5 -2 17]	[19 6 21 8 11 0 11 11 10]
3	3	3	11	5	6	[2 6 8]	[5 6 3 3 2 6 -6 -4 0]	[1 -1 3 4 4 5 -3 17 13]
4	3	2	5	6	[2 8 0 0 0 1 6 5 0]	[11 -1 4 3 1 1 4 6 7]
5	3	4	3	8	11	7	[-49 -37 -49 -17 -51 -29 -55 -50 -15]	[6 6 0 -4 11 -3 1 10 16]	[2 8 8]	[2 5 3 8 24 16 12 9 11]
6	3	3	11	8	7	[8 8 7]	[24 7 11 8 7 18 -4 16 15]	[7 15 15 0 3 15 3 13 16]
7	3	3	10	9	11	[-3 -2 10 1 15 10 -2 3 6]	[7 6 8 7 6 11 0 3 0]	[4 5 3]
8	3	6	11	5	9	10	1	4	[10 9 7]	[-21 -46 -63 -48 -22 -45 -61 -52 -50]	[27 15 7 -7 15 20 9 4 1]	[5 -9 6 4 20 18 4 19 17]	[-39 -35 -61 -30 -39 -48 -42 -26 -39]	[-63 -48 -38 -21 -49 -68 -36 -68 -33]
9	3	1	11	[1 1 10]
10	3	2	7	11	[-2 -12 -13 -10 -10 -9 -6 -12 -3]	[6 10 8]
11	1	0
0	1	0	0	0	0	0	0	0	0
1	1	1	2	3	3	3	5	3	2
	2	5	2	3	3	3	5	3	2
	3	3	2	3	3	3	5	3	2
2	1	7	5	2	5	1	1	1	1
	2	6	5	2	5	1	1	1	1
	3	7	5	2	5	1	1	1	1
3	1	2	3	2	1	4	3	5	1
	2	6	3	2	1	4	3	5	1
	3	8	3	2	1	4	3	5	1
4	1	5	4	3	4	2	2	2	1
	2	1	4	3	4	2	2	2	1
	3	3	4	3	4	2	2	2	1
5	1	2	4	5	1	1	3	1	4
	2	8	4	5	1	1	3	1	4
	3	8	4	5	1	1	3	1	4
6	1	8	1	1	4	5	3	3	3
	2	8	1	1	4	5	3	3	3
	3	7	1	1	4	5	3	3	3
7	1	4	1	1	5	2	2	2	2
	2	5	1	1	5	2	2	2	2
	3	3	1	1	5	2	2	2	2
8	1	10	1	5	4	1	4	4	5
	2	9	1	5	4	1	4	4	5
	3	7	1	5	4	1	4	4	5
9	1	1	1	2	5	5	4	4	1
	2	1	1	2	5	5	4	4	1
	3	10	1	2	5	5	4	4	1
10	1	6	3	4	3	1	1	2	3
	2	10	3	4	3	1	1	2	3
	3	8	3	4	3	1	1	2	3
11	1	0	0	0	0	0	0	0	0
5	5	5	5	5	27	50
